50
1000
299
295
295
290
286
283
282
276
268
259
254
251
245
242
242
240
236
234
231
223
217
214
208
205
200
183
181
179
172
171
169
165
159
153
152
150
149
147
144
142
135
135
134
126
125
124
114
113
106
105
